37260
10,17,128,150,245,281,371,499,520,562,693,737,1007,1028,1057,1100,1143,1352,1356,1400,1435,1447,1649,1685,1717,1724,1800,1825,1994,2021,2268,2504,2585,2744,2753,2763,2872,3060,3092,3149,3168,3175,3190,3216,3250,3323,3327,3398,3471,3558,3562,3599,3675,3682,3708,3901,4047,4137,4226,4316,4390,4487,4540,4544,4551,4561,4599,4632,4643,4650,4703,4818,4860,4881
